6
12
34
45
27
19
7
46
45
34
23
12
4
50
20
12
23
34
45
56
67
89
67
12
23
21
32
43
54
43
54
65
32
6
50
100
34
23
34
45
119
30
24
15
46
27
38
9
18
7
46
5
14
34
32
11
2
33
4
15
36
47
8
34
34
34
34
34
23
34
45
19
30
24
15
46
27
38
9
18
7
46
5
14
34
32
11
23
34
45
19
30
24
15
46
27
38
9
18
7
46
5
14
34
32
11
23
34
45
19
30
24
15
46
27
38
9
18
7
46
5
14
34
32
11
23
34
45
19
30
24
15
46
27
38
9
18
7
46
5
14
34
32
11
23
34
45
19
30
24
15
46
27
38
9
10
7
46
5
14
34
32
11
6
5
4
30
45
19
30
24
15
46
27
38
9
18
7
46
5
14
34
32
11
23
34
45
19
30
24
15
46
27
38
9
18
7

